language ESSENCE' 1.0

letting n_courses be 137
letting n_periods be 23
letting prerequisite_RelationAsSet_Explicit_1 be
        [1, 1, 1, 3, 3, 3, 3, 4, 5, 5, 5, 6, 6, 7, 8, 8, 9, 10, 10, 10, 10, 10, 11, 11, 13, 13, 13, 14, 14, 14, 15, 15,
         15, 16, 16, 16, 16, 18, 18, 19, 20, 20, 20, 22, 23, 24, 25, 25, 27, 27, 28, 29, 30, 30, 30, 30, 30, 31, 31, 31,
         32, 32, 32, 33, 33, 34, 35, 35, 35, 35, 36, 37, 37, 37, 37, 37, 37, 38, 40, 41, 41, 41, 41, 42, 42, 42, 43, 44,
         44, 45, 45, 46, 47, 47, 47, 48, 48, 48, 48, 53, 53, 54, 54, 56, 56, 57, 57, 58, 59, 59, 59, 61, 62, 63, 63, 64,
         66, 67, 68, 69, 69, 69, 70, 70, 71, 71, 71, 74, 76, 78, 78, 78, 78, 79, 80, 81, 82, 84, 84, 85, 86, 86, 86, 88,
         89, 89, 90, 91, 91, 92, 93, 95, 95, 96, 96, 97, 98, 99, 99, 101, 102, 104, 104, 105, 105, 106, 106, 106, 107,
         107, 107;
             int(1..171)]
letting prerequisite_RelationAsSet_Explicit_2 be
        [75, 80, 100, 59, 66, 96, 105, 101, 72, 82, 89, 94, 106, 55, 51, 101, 98, 54, 73, 84, 88, 102, 51, 97, 57, 71,
         87, 76, 92, 103, 63, 94, 95, 51, 60, 79, 87, 84, 107, 77, 64, 88, 97, 92, 101, 61, 85, 90, 63, 105, 76, 62, 64,
         85, 86, 91, 104, 58, 66, 107, 55, 77, 100, 54, 84, 72, 67, 74, 80, 105, 51, 56, 61, 68, 83, 89, 105, 52, 64,
         81, 89, 94, 103, 53, 63, 66, 69, 62, 106, 82, 101, 95, 57, 65, 99, 70, 78, 85, 93, 112, 135, 109, 117, 115,
         136, 112, 130, 136, 122, 131, 136, 133, 122, 121, 129, 111, 121, 120, 111, 124, 125, 127, 132, 133, 109, 112,
         113, 111, 125, 110, 119, 122, 129, 133, 122, 135, 125, 113, 118, 128, 122, 123, 131, 134, 114, 127, 127, 128,
         134, 117, 113, 132, 134, 124, 126, 123, 137, 111, 124, 122, 137, 109, 114, 117, 123, 112, 120, 130, 108, 116,
         130;
             int(1..171)]
letting course_load_Function1D be
        [3, 4, 4, 2, 5, 5, 3, 3, 3, 2, 4, 2, 4, 3, 4, 3, 4, 3, 2, 2, 2, 2, 4, 4, 4, 3, 3, 3, 3, 2, 3, 3, 4, 3, 4, 2, 3,
         2, 3, 4, 3, 3, 2, 3, 4, 3, 2, 5, 3, 5, 3, 2, 2, 3, 2, 5, 3, 4, 4, 2, 5, 3, 4, 3, 3, 3, 3, 5, 3, 5, 3, 2, 2, 3,
         3, 4, 2, 4, 4, 3, 5, 3, 4, 5, 2, 3, 4, 5, 2, 3, 5, 4, 4, 4, 2, 3, 4, 2, 3, 5, 2, 5, 3, 2, 2, 4, 3, 2, 3, 5, 5,
         3, 4, 4, 4, 2, 3, 3, 4, 3, 3, 4, 3, 4, 3, 4, 4, 3, 3, 2, 3, 4, 4, 4, 4, 2, 5;
             int(1..137)]
letting load_per_period_ub be 20
letting load_per_period_lb be 8
letting courses_per_period_ub be 7
letting courses_per_period_lb be 4
letting fin1 be 171
letting fin2 be 137
letting fin3 be 5
